p cnf 14 20
14 11 5 0
14 9 3 0
-14 -3 -1 0
13 7 1 0
-12 10 -3 0
12 -8 6 0
-12 8 -3 0
11 -9 -6 0
-11 8 -4 0
11 7 -3 0
10 9 5 0
10 9 3 0
10 -8 4 0
-10 -8 -4 0
10 7 -1 0
10 -3 1 0
-9 -7 -4 0
8 -7 5 0
8 7 -5 0
7 -3 -1 0
